000 000 000 000 000 000 000 000 -99 -99 -99 -99 -99 000 000 -99 -99 -99 000 000 000 000 000 000 000 000 000 000 -99 -99 -99
000 000 000 000 000 000 000 000 000 -99 -99 -99 -99 000 000 000 -99 -99 000 000 000 000 000 000 000 000 000 000 -99 -99 -99
-99 000 000 000 000 000 000 000 000 -99 -99 000 000 000 000 000 -99 -99 000 000 000 000 000 000 000 000 000 000 000 -99 -99
000 000 000 000 000 000 000 -99 000 -99 -99 000 000 000 000 000 000 -99 000 000 000 000 001 000 000 000 000 000 000 -99 000
000 000 000 000 000 000 000 000 000 000 000 000 000 000 000 000 000 000 000 000 000 000 000 000 000 001 001 000 000 001 000
000 000 000 000 000 000 000 000 000 000 000 000 000 001 000 000 000 000 000 000 001 002 001 001 001 001 001 001 001 001 002
000 000 000 000 000 000 000 000 000 000 000 001 002 002 002 001 000 000 000 000 000 000 001 001 002 001 002 001 001 002 004
000 000 001 000 000 000 000 000 000 000 000 003 003 003 003 001 000 000 000 000 000 000 001 001 002 002 003 001 001 003 004
001 001 001 000 000 000 000 000 000 000 000 001 002 001 002 000 000 000 000 000 000 001 001 003 003 005 003 002 001 001 003
002 001 001 001 000 000 000 000 000 000 000 000 001 000 000 000 000 000 000 000 000 001 004 005 012 008 004 002 001 000 001
004 001 001 001 000 000 000 000 000 000 000 000 000 000 000 000 000 000 000 000 000 001 003 005 007 004 003 002 001 000 001
002 003 001 000 000 000 000 000 000 000 000 000 000 000 000 000 000 000 000 000 000 002 004 006 006 010 004 002 002 001 000
002 001 000 000 000 000 000 000 000 000 000 000 000 -99 000 000 000 000 000 000 000 001 008 007 011 003 004 003 002 002 001
000 000 000 000 000 000 000 000 000 000 000 000 -99 -99 000 000 000 000 000 000 001 003 010 008 015 005 003 002 002 002 001
001 000 000 000 000 000 000 000 000 000 -99 -99 -99 000 000 000 000 000 000 000 000 002 010 006 010 005 002 002 001 002 001
000 000 000 000 000 000 000 000 000 000 -99 -99 -99 000 000 000 000 000 000 000 000 003 006 005 006 004 002 002 001 002 002
000 000 000 000 000 000 000 000 000 -99 -99 -99 -99 000 000 000 000 000 000 000 000 000 002 002 003 003 001 002 002 001 001
001 001 000 000 000 000 000 000 000 000 000 -99 -99 000 000 000 000 000 001 001 000 000 001 001 002 002 001 001 001 001 001
001 000 000 000 -99 -99 000 000 000 000 000 000 -99 000 000 000 000 000 001 000 000 000 000 001 001 001 001 004 002 001 001
001 000 000 000 000 -99 000 000 000 000 000 000 -99 -99 000 000 000 000 000 000 000 000 000 -99 -99 001 002 005 002 001 001
000 000 000 000 000 000 -99 000 000 000 000 000 000 -99 000 000 000 000 000 000 000 000 000 -99 -99 001 002 005 003 002 002
000 000 000 001 000 000 000 000 000 000 000 000 000 000 000 000 000 000 000 000 000 000 000 -99 -99 001 002 005 003 002 002
000 000 000 001 000 000 000 000 000 000 000 000 000 000 000 000 000 000 000 000 000 000 000 -99 -99 -99 -99 -99 004 002 002
000 000 000 000 000 000 000 000 000 000 000 000 000 000 000 000 000 000 000 000 000 000 000 -99 -99 -99 -99 -99 -99 002 002
000 000 000 000 000 000 000 000 000 000 000 000 000 000 000 000 000 000 000 000 000 000 000 -99 -99 -99 -99 -99 -99 002 001
000 000 000 000 000 000 000 000 000 000 000 000 000 000 000 000 000 000 000 000 000 000 000 -99 -99 -99 -99 -99 -99 001 001
000 000 000 000 000 000 000 000 000 000 000 000 000 000 000 000 000 000 000 000 000 000 001 -99 -99 -99 -99 -99 -99 001 001
000 000 000 000 000 000 000 000 000 000 000 000 000 000 000 000 000 000 000 -99 000 000 001 -99 -99 -99 -99 -99 001 001 001
000 000 000 000 000 000 000 000 000 000 000 000 000 000 000 000 000 000 000 -99 000 000 -99 -99 -99 -99 -99 -99 001 001 000
000 000 000 000 000 000 000 000 000 000 000 000 000 000 000 000 000 000 000 000 000 000 -99 -99 -99 -99 -99 000 000 001 000
000 000 000 000 000 000 000 000 000 000 000 -99 -99 000 000 000 000 000 000 000 -99 000 -99 -99 -99 -99 -99 000 000 001 000
000 000 000 000 000 000 000 000 000 000 -99 -99 -99 000 000 000 000 000 000 -99 -99 -99 -99 -99 -99 -99 -99 000 000 000 000
000 000 000 000 000 000 000 000 000 000 -99 -99 -99 000 000 -99 000 000 000 -99 -99 -99 -99 -99 000 -99 -99 000 000 000 000
000 000 000 000 000 000 000 000 000 000 -99 -99 -99 -99 000 000 000 000 -99 -99 -99 -99 -99 000 000 000 -99 000 000 000 000
000 000 000 000 000 000 000 000 000 000 -99 -99 000 000 000 000 000 000 -99 000 000 -99 -99 000 000 000 000 000 000 000 000
000 000 000 000 000 000 000 000 000 000 -99 000 000 000 000 000 000 000 -99 000 000 -99 -99 000 000 000 000 000 000 000 000
000 000 -99 000 000 000 000 000 000 000 -99 -99 000 000 000 000 000 000 -99 000 000 -99 000 000 000 000 000 000 000 000 000
000 -99 000 000 000 000 000 000 000 000 -99 000 000 000 000 000 000 000 000 -99 000 -99 000 000 000 000 000 000 000 000 -99
000 -99 000 -99 000 000 000 -99 -99 000 -99 000 000 000 000 000 000 000 -99 000 000 000 000 000 000 000 000 000 000 000 000
-99 000 000 000 000 000 000 -99 -99 -99 -99 000 000 000 000 000 000 000 000 000 000 000 000 000 000 000 000 000 000 000 000
000 000 000 000 000 -99 -99 -99 -99 -99 -99 000 000 000 000 000 000 -99 000 000 000 000 000 000 000 000 000 -99 -99 000 000
000 000 -99 000 -99 -99 000 -99 -99 -99 000 -99 000 000 000 000 000 000 000 000 000 000 000 000 000 -99 -99 -99 -99 -99 000
000 000 -99 -99 000 000 -99 -99 -99 000 000 -99 000 000 000 000 000 000 000 000 000 000 000 000 000 000 -99 -99 -99 -99 -99
000 -99 -99 -99 -99 000 -99 -99 000 000 000 000 000 000 000 000 000 000 000 000 000 000 000 000 000 -99 -99 -99 -99 -99 -99
000 -99 -99 -99 -99 -99 -99 -99 -99 000 000 000 000 000 000 000 000 000 000 000 000 000 000 000 -99 -99 000 000 -99 -99 -99
000 -99 -99 -99 -99 -99 -99 -99 -99 -99 -99 000 000 000 000 -99 000 000 000 000 000 000 000 000 -99 -99 000 000 -99 -99 000
000 -99 -99 -99 -99 -99 -99 -99 -99 -99 -99 000 000 000 000 -99 000 000 000 000 000 000 000 000 000 000 000 -99 -99 -99 -99
-99 -99 -99 -99 -99 -99 -99 -99 000 -99 -99 000 000 000 -99 -99 -99 000 -99 000 000 000 000 000 000 000 000 -99 -99 -99 -99
-99 -99 -99 -99 -99 -99 -99 -99 000 000 -99 -99 000 000 -99 -99 -99 000 000 000 000 000 000 000 000 000 -99 000 -99 -99 -99
-99 -99 -99 -99 -99 -99 000 000 000 000 -99 -99 000 000 -99 -99 -99 000 000 000 000 000 000 000 000 000 -99 000 000 -99 -99
-99 -99 -99 -99 -99 000 000 000 000 000 -99 -99 000 -99 -99 -99 -99 -99 000 000 000 000 000 000 -99 000 -99 000 000 -99 -99
-99 -99 -99 -99 -99 000 000 -99 000 -99 -99 -99 000 -99 -99 -99 -99 000 000 000 000 000 000 -99 -99 -99 000 000 -99 -99 -99
-99 -99 -99 -99 -99 -99 000 000 -99 -99 -99 000 -99 -99 -99 -99 -99 000 000 000 -99 000 -99 -99 -99 -99 -99 000 -99 -99 -99
-99 -99 -99 -99 -99 -99 000 000 000 000 000 -99 -99 -99 -99 -99 000 000 000 -99 -99 -99 -99 -99 -99 -99 000 000 -99 -99 000
-99 -99 -99 -99 -99 000 000 000 000 000 000 -99 -99 -99 -99 -99 000 000 -99 -99 -99 -99 -99 -99 -99 -99 000 -99 -99 -99 000
